#######################################
### Exact MIP solver for the HHCRSP ###
#######################################
-- Instance file: new-instances/HHCRSP_100_20_37_0.4_R_C.txt
-- Max threads: 4
-- Time limit: 999999 seconds
-- Use initial solution: No
Trivial flow violations prevented generating 43544 variables.
Model exported.
Version identifier: 20.1.0.0 | 2020-11-10 | 9bedb6d68
CPXPARAM_Threads                                 4
CPXPARAM_TimeLimit                               999999
Parallel mode: deterministic, using up to 4 threads for concurrent optimization:
 * Starting dual Simplex on 1 thread...
 * Starting Barrier on 3 threads...
Tried aggregator 1 time.
LP Presolve eliminated 4932 rows and 1222 columns.
Reduced LP has 44900 rows, 43167 columns, and 497294 nonzeros.
Presolve time = 0.45 sec. (130.45 ticks)
Symmetry aggregator did 53116 additional substitutions.
Initializing dual steep norms . . .

Iteration log . . .
Iteration:     1   Dual objective     =             1.333333

Dual crossover.
  Dual:  Fixing 227 variables.
      226 DMoves:  Infeasibility  6.01185768e-14  Objective  1.78666667e+02
        0 DMoves:  Infeasibility  4.59077221e-14  Objective  1.78666667e+02
  Dual:  Pushed 6, exchanged 221.
  Primal:  Fixing 136 variables.
      135 PMoves:  Infeasibility  8.32667268e-16  Objective  1.78666667e+02
        0 PMoves:  Infeasibility  9.43689571e-16  Objective  1.78666667e+02
  Primal:  Pushed 83, exchanged 53.

Dual simplex solved model.


Solution status from MIP model:
-- Processing time: 0.7 sec.
-- Memory used: 100.168 MB
-- Best bound: inf
-- Obj value: 178.667
-- Gap: inf%
-- Total distance: 536
-- Total tardiness: 0
-- Largest tardiness: 0
